objective value:                    -4.82543226869877
h-1,34                                           0.01 	(obj:0)
h-1,35                                           0.01 	(obj:0)
h-1,36                                           0.01 	(obj:0)
h-1,37                                           0.01 	(obj:0)
h-1,38                                           0.01 	(obj:0)
h-1,39                                           0.01 	(obj:0)
h-1,40                                           0.01 	(obj:0)
h-1,41                                           0.01 	(obj:0)
h-1,42                                           0.01 	(obj:0)
h-1,43                                           0.01 	(obj:0)
h-1,44                                           0.01 	(obj:0)
h-1,45                                           0.01 	(obj:0)
h-1,46                                           0.01 	(obj:0)
h-1,47                                           0.01 	(obj:0)
h-1,48                                           0.01 	(obj:0)
h-1,49                                           0.01 	(obj:0)
h-1,50                                           0.01 	(obj:0)
h-1,51                                           0.01 	(obj:0)
h-1,61                                           0.01 	(obj:0)
h-1,62                                           0.01 	(obj:0)
h-1,63                                           0.01 	(obj:0)
h-1,64                                           0.01 	(obj:0)
h-1,65                                           0.01 	(obj:0)
h-1,66                                           0.01 	(obj:0)
h-1,67                                           0.01 	(obj:0)
h-1,68                                           0.01 	(obj:0)
h-1,69                                           0.01 	(obj:0)
h-1,70                                           0.01 	(obj:0)
h-1,71                                           0.01 	(obj:0)
h-1,72                                           0.01 	(obj:0)
h-1,79                                           0.01 	(obj:0)
h-1,80                                           0.01 	(obj:0)
h-1,81                                           0.01 	(obj:0)
h-1,86                                           0.01 	(obj:0)
h-1,92                                           0.01 	(obj:0)
h-1,93                                           0.01 	(obj:0)
h-1,94                                           0.01 	(obj:0)
h-1,95                                           0.01 	(obj:0)
h-1,96                                           0.01 	(obj:0)
h-1,97                                           0.01 	(obj:0)
h-1,98                                           0.01 	(obj:0)
h-1,99                                           0.01 	(obj:0)
h-1,100                                          0.01 	(obj:0)
h-1,109                                          0.01 	(obj:0)
h-1,110                                          0.01 	(obj:0)
h-1,115                                          0.01 	(obj:0)
h-1,116                                          0.01 	(obj:0)
h-1,128                             0.139019613862038 	(obj:0)
h-1,129                                             1 	(obj:0)
h-1,130                             0.417450984716415 	(obj:0)
h-1,132                                          0.01 	(obj:0)
h-1,138                                          0.01 	(obj:0)
h-1,139                                          0.01 	(obj:0)
h-1,142                                          0.01 	(obj:0)
h-1,156                             0.331176480054855 	(obj:0)
h-1,157                             0.978235294818878 	(obj:0)
h-1,158                             0.311568638086319 	(obj:0)
h-1,167                                          0.01 	(obj:0)
h-1,174                                          0.01 	(obj:0)
h-1,175                                          0.01 	(obj:0)
h-1,178                                          0.01 	(obj:0)
h-1,184                             0.519411792755127 	(obj:0)
h-1,185                             0.935098042488098 	(obj:0)
h-1,189                                          0.01 	(obj:0)
h-1,199                                          0.01 	(obj:0)
h-1,201                                          0.01 	(obj:0)
h-1,202                                          0.01 	(obj:0)
h-1,203                                          0.01 	(obj:0)
h-1,204                                          0.01 	(obj:0)
h-1,205                                          0.01 	(obj:0)
h-1,211                             0.166470592617989 	(obj:0)
h-1,212                              0.94686274766922 	(obj:0)
h-1,213                             0.578235318660736 	(obj:0)
h-1,217                                          0.01 	(obj:0)
h-1,223                                          0.01 	(obj:0)
h-1,224                                          0.01 	(obj:0)
h-1,225                                          0.01 	(obj:0)
h-1,226                                          0.01 	(obj:0)
h-1,227                                          0.01 	(obj:0)
h-1,229                                          0.01 	(obj:0)
h-1,230                                          0.01 	(obj:0)
h-1,231                                          0.01 	(obj:0)
h-1,232                                          0.01 	(obj:0)
h-1,233                                          0.01 	(obj:0)
h-1,234                                          0.01 	(obj:0)
h-1,239                             0.319411774873734 	(obj:0)
h-1,240                                             1 	(obj:0)
h-1,241                              0.25705882370472 	(obj:0)
h-1,243                                          0.01 	(obj:0)
h-1,244                                          0.01 	(obj:0)
h-1,246                                          0.01 	(obj:0)
h-1,247                                          0.01 	(obj:0)
h-1,252                                          0.01 	(obj:0)
h-1,253                                          0.01 	(obj:0)
h-1,254                                          0.01 	(obj:0)
h-1,255                                          0.01 	(obj:0)
h-1,256                                          0.01 	(obj:0)
h-1,257                                          0.01 	(obj:0)
h-1,258                                          0.01 	(obj:0)
h-1,259                                          0.01 	(obj:0)
h-1,260                                          0.01 	(obj:0)
h-1,261                                          0.01 	(obj:0)
h-1,262                                          0.01 	(obj:0)
h-1,264                                          0.01 	(obj:0)
h-1,266                                          0.01 	(obj:0)
h-1,267                             0.802156875133514 	(obj:0)
h-1,268                             0.884509811401367 	(obj:0)
h-1,269                            0.0531372560560703 	(obj:0)
h-1,274                                          0.01 	(obj:0)
h-1,279                                          0.01 	(obj:0)
h-1,280                                          0.01 	(obj:0)
h-1,281                                          0.01 	(obj:0)
h-1,282                                          0.01 	(obj:0)
h-1,283                                          0.01 	(obj:0)
h-1,284                                          0.01 	(obj:0)
h-1,285                                          0.01 	(obj:0)
h-1,286                                          0.01 	(obj:0)
h-1,287                                          0.01 	(obj:0)
h-1,288                                          0.01 	(obj:0)
h-1,289                                          0.01 	(obj:0)
h-1,290                                          0.01 	(obj:0)
h-1,291                                          0.01 	(obj:0)
h-1,293                                          0.01 	(obj:0)
h-1,294                             0.135490203499794 	(obj:0)
h-1,295                                             1 	(obj:0)
h-1,296                             0.857058832645416 	(obj:0)
h-1,297                                          0.01 	(obj:0)
h-1,298                                          0.01 	(obj:0)
h-1,300                                          0.01 	(obj:0)
h-1,301                                          0.01 	(obj:0)
h-1,307                                          0.01 	(obj:0)
h-1,309                                          0.01 	(obj:0)
h-1,310                                          0.01 	(obj:0)
h-1,311                                          0.01 	(obj:0)
h-1,312                                          0.01 	(obj:0)
h-1,313                                          0.01 	(obj:0)
h-1,314                                          0.01 	(obj:0)
h-1,315                                          0.01 	(obj:0)
h-1,316                                          0.01 	(obj:0)
h-1,317                                          0.01 	(obj:0)
h-1,319                                          0.01 	(obj:0)
h-1,322                             0.362549027204514 	(obj:0)
h-1,323                             0.986078431606293 	(obj:0)
h-1,324                             0.754705896377563 	(obj:0)
h-1,327                                          0.01 	(obj:0)
h-1,329                                          0.01 	(obj:0)
h-1,330                                          0.01 	(obj:0)
h-1,331                                          0.01 	(obj:0)
h-1,332                                          0.01 	(obj:0)
h-1,333                                          0.01 	(obj:0)
h-1,335                                          0.01 	(obj:0)
h-1,337                                          0.01 	(obj:0)
h-1,338                                          0.01 	(obj:0)
h-1,339                                          0.01 	(obj:0)
h-1,340                                          0.01 	(obj:0)
h-1,342                                          0.01 	(obj:0)
h-1,344                                          0.01 	(obj:0)
h-1,350                             0.539019634723663 	(obj:0)
h-1,351                             0.986078431606293 	(obj:0)
h-1,352                             0.291960796117783 	(obj:0)
h-1,358                                          0.01 	(obj:0)
h-1,359                                          0.01 	(obj:0)
h-1,360                                          0.01 	(obj:0)
h-1,361                                          0.01 	(obj:0)
h-1,362                                          0.01 	(obj:0)
h-1,363                                          0.01 	(obj:0)
h-1,365                                          0.01 	(obj:0)
h-1,366                                          0.01 	(obj:0)
h-1,367                                          0.01 	(obj:0)
h-1,369                                          0.01 	(obj:0)
h-1,377                             0.213529413342476 	(obj:0)
h-1,378                             0.919411768913269 	(obj:0)
h-1,379                             0.793921580314636 	(obj:0)
h-1,380                            0.0213725508749485 	(obj:0)
h-1,385                                          0.01 	(obj:0)
h-1,386                                          0.01 	(obj:0)
h-1,387                                          0.01 	(obj:0)
h-1,388                                          0.01 	(obj:0)
h-1,389                                          0.01 	(obj:0)
h-1,390                                          0.01 	(obj:0)
h-1,391                                          0.01 	(obj:0)
h-1,393                                          0.01 	(obj:0)
h-1,394                                          0.01 	(obj:0)
h-1,401                                          0.01 	(obj:0)
h-1,405                             0.476274510622025 	(obj:0)
h-1,406                                          0.99 	(obj:0)
h-1,407                             0.637058844566345 	(obj:0)
h-1,412                                          0.01 	(obj:0)
h-1,413                                          0.01 	(obj:0)
h-1,414                                          0.01 	(obj:0)
h-1,415                                          0.01 	(obj:0)
h-1,416                                          0.01 	(obj:0)
h-1,417                                          0.01 	(obj:0)
h-1,418                                          0.01 	(obj:0)
h-1,419                                          0.01 	(obj:0)
h-1,421                                          0.01 	(obj:0)
h-1,425                                          0.01 	(obj:0)
h-1,426                                          0.01 	(obj:0)
h-1,427                                          0.01 	(obj:0)
h-1,433                             0.660588254928589 	(obj:0)
h-1,434                             0.986078431606293 	(obj:0)
h-1,435                             0.307647069692612 	(obj:0)
h-1,440                                          0.01 	(obj:0)
h-1,441                                          0.01 	(obj:0)
h-1,442                                          0.01 	(obj:0)
h-1,443                                          0.01 	(obj:0)
h-1,444                                          0.01 	(obj:0)
h-1,445                                          0.01 	(obj:0)
h-1,446                                          0.01 	(obj:0)
h-1,447                                          0.01 	(obj:0)
h-1,450                                          0.01 	(obj:0)
h-1,454                                          0.01 	(obj:0)
h-1,455                                          0.01 	(obj:0)
h-1,460                            0.0841176488995552 	(obj:0)
h-1,461                             0.899803926944733 	(obj:0)
h-1,462                             0.833137264251709 	(obj:0)
h-1,467                                          0.01 	(obj:0)
h-1,469                                          0.01 	(obj:0)
h-1,472                                          0.01 	(obj:0)
h-1,473                                          0.01 	(obj:0)
h-1,474                                          0.01 	(obj:0)
h-1,475                                          0.01 	(obj:0)
h-1,480                                          0.01 	(obj:0)
h-1,482                                          0.01 	(obj:0)
h-1,488                             0.460588237047195 	(obj:0)
h-1,489                             0.986078431606293 	(obj:0)
h-1,490                             0.613529434204102 	(obj:0)
h-1,493                                          0.01 	(obj:0)
h-1,495                                          0.01 	(obj:0)
h-1,496                                          0.01 	(obj:0)
h-1,498                                          0.01 	(obj:0)
h-1,500                                          0.01 	(obj:0)
h-1,501                                          0.01 	(obj:0)
h-1,502                                          0.01 	(obj:0)
h-1,503                                          0.01 	(obj:0)
h-1,508                                          0.01 	(obj:0)
h-1,509                                          0.01 	(obj:0)
h-1,511                                          0.01 	(obj:0)
h-1,512                                          0.01 	(obj:0)
h-1,513                                          0.01 	(obj:0)
h-1,514                                          0.01 	(obj:0)
h-1,515                                          0.01 	(obj:0)
h-1,516                             0.602156887054443 	(obj:0)
h-1,517                                             1 	(obj:0)
h-1,518                             0.566862771511078 	(obj:0)
h-1,519                                          0.01 	(obj:0)
h-1,520                                          0.01 	(obj:0)
h-1,521                                          0.01 	(obj:0)
h-1,522                                          0.01 	(obj:0)
h-1,523                                          0.01 	(obj:0)
h-1,525                                          0.01 	(obj:0)
h-1,526                                          0.01 	(obj:0)
h-1,527                                          0.01 	(obj:0)
h-1,528                                          0.01 	(obj:0)
h-1,529                                          0.01 	(obj:0)
h-1,530                                          0.01 	(obj:0)
h-1,531                                          0.01 	(obj:0)
h-1,533                                          0.01 	(obj:0)
h-1,536                                          0.01 	(obj:0)
h-1,537                                          0.01 	(obj:0)
h-1,540                                          0.01 	(obj:0)
h-1,541                                          0.01 	(obj:0)
h-1,542                                          0.01 	(obj:0)
h-1,543                                          0.01 	(obj:0)
h-1,544                             0.904117653369904 	(obj:0)
h-1,545                                             1 	(obj:0)
h-1,546                             0.268823543787003 	(obj:0)
h-1,547                                          0.01 	(obj:0)
h-1,548                                          0.01 	(obj:0)
h-1,549                                          0.01 	(obj:0)
h-1,550                                          0.01 	(obj:0)
h-1,551                                          0.01 	(obj:0)
h-1,552                                          0.01 	(obj:0)
h-1,553                                          0.01 	(obj:0)
h-1,554                                          0.01 	(obj:0)
h-1,555                                          0.01 	(obj:0)
h-1,556                                          0.01 	(obj:0)
h-1,557                                          0.01 	(obj:0)
h-1,558                                          0.01 	(obj:0)
h-1,563                                          0.01 	(obj:0)
h-1,564                                          0.01 	(obj:0)
h-1,565                                          0.01 	(obj:0)
h-1,566                                          0.01 	(obj:0)
h-1,567                                          0.01 	(obj:0)
h-1,568                                          0.01 	(obj:0)
h-1,569                                          0.01 	(obj:0)
h-1,570                                          0.01 	(obj:0)
h-1,571                             0.249215686917305 	(obj:0)
h-1,572                             0.994313726425171 	(obj:0)
h-1,573                                             1 	(obj:0)
h-1,574                             0.268823543787003 	(obj:0)
h-1,575                                          0.01 	(obj:0)
h-1,576                                          0.01 	(obj:0)
h-1,579                                          0.01 	(obj:0)
h-1,580                                          0.01 	(obj:0)
h-1,581                                          0.01 	(obj:0)
h-1,582                                          0.01 	(obj:0)
h-1,583                                          0.01 	(obj:0)
h-1,584                                          0.01 	(obj:0)
h-1,585                                          0.01 	(obj:0)
h-1,586                                          0.01 	(obj:0)
h-1,590                                          0.01 	(obj:0)
h-1,591                                          0.01 	(obj:0)
h-1,592                                          0.01 	(obj:0)
h-1,593                                          0.01 	(obj:0)
h-1,594                                          0.01 	(obj:0)
h-1,596                                          0.01 	(obj:0)
h-1,597                                          0.01 	(obj:0)
h-1,598                                          0.01 	(obj:0)
h-1,599                             0.562941203117371 	(obj:0)
h-1,600                                             1 	(obj:0)
h-1,601                             0.813921580314636 	(obj:0)
h-1,602                            0.0217647061124444 	(obj:0)
h-1,603                                          0.01 	(obj:0)
h-1,604                                          0.01 	(obj:0)
h-1,605                                          0.01 	(obj:0)
h-1,606                                          0.01 	(obj:0)
h-1,607                                          0.01 	(obj:0)
h-1,609                                          0.01 	(obj:0)
h-1,610                                          0.01 	(obj:0)
h-1,611                                          0.01 	(obj:0)
h-1,612                                          0.01 	(obj:0)
h-1,613                                          0.01 	(obj:0)
h-1,614                                          0.01 	(obj:0)
h-1,620                                          0.01 	(obj:0)
h-1,621                                          0.01 	(obj:0)
h-1,622                                          0.01 	(obj:0)
h-1,624                                          0.01 	(obj:0)
h-1,625                                          0.01 	(obj:0)
h-1,626                            0.0292156876623631 	(obj:0)
h-1,627                             0.833137264251709 	(obj:0)
h-1,628                             0.986078431606293 	(obj:0)
h-1,629                             0.464509805440903 	(obj:0)
h-1,631                                          0.01 	(obj:0)
h-1,632                                          0.01 	(obj:0)
h-1,633                                          0.01 	(obj:0)
h-1,634                                          0.01 	(obj:0)
h-1,635                                          0.01 	(obj:0)
h-1,637                                          0.01 	(obj:0)
h-1,638                                          0.01 	(obj:0)
h-1,639                                          0.01 	(obj:0)
h-1,640                                          0.01 	(obj:0)
h-1,641                                          0.01 	(obj:0)
h-1,653                                          0.01 	(obj:0)
h-1,654                           0.00960784383118152 	(obj:0)
h-1,655                             0.766470601558685 	(obj:0)
h-1,656                             0.680196096897125 	(obj:0)
h-1,657                            0.0292156876623631 	(obj:0)
h-1,660                                          0.01 	(obj:0)
h-1,661                                          0.01 	(obj:0)
h-1,666                                          0.01 	(obj:0)
h-1,667                                          0.01 	(obj:0)
h-1,668                                          0.01 	(obj:0)
h-1,669                                          0.01 	(obj:0)
h-1,687                                          0.01 	(obj:0)
h-1,689                                          0.01 	(obj:0)
h-1,696                                          0.01 	(obj:0)
h-1,697                                          0.01 	(obj:0)
h-1,701                                          0.01 	(obj:0)
h-1,704                                          0.01 	(obj:0)
h-1,724                                          0.01 	(obj:0)
h-1,752                                          0.01 	(obj:0)
h-1,762                                          0.01 	(obj:0)
h-1,763                                          0.01 	(obj:0)
h-1,764                                          0.01 	(obj:0)
h-1,765                                          0.01 	(obj:0)
h-1,766                                          0.01 	(obj:0)
h-1,769                                          0.01 	(obj:0)
h-1,770                                          0.01 	(obj:0)
h-1,772                                          0.01 	(obj:0)
h-1,773                                          0.01 	(obj:0)
h-1,774                                          0.01 	(obj:0)
h-1,775                                          0.01 	(obj:0)
h-1,777                                          0.01 	(obj:0)
h-1,778                                          0.01 	(obj:0)
h-1,779                                          0.01 	(obj:0)
z0,0                                -2.67629347810696 	(obj:0)
z0,1                                0.108962244310962 	(obj:0)
a0,1                                0.108962244310962 	(obj:0)
z0,2                                 3.61367606101448 	(obj:0)
a0,2                                 3.61367606101448 	(obj:0)
z0,3                                 0.55087327384687 	(obj:0)
a0,3                                 0.55087327384687 	(obj:0)
z0,4                                -2.90053492848456 	(obj:0)
z0,5                                 3.02621692930943 	(obj:0)
a0,5                                 3.02621692930943 	(obj:0)
z0,6                                 3.62364107949102 	(obj:0)
a0,6                                 3.62364107949102 	(obj:0)
z0,7                                 1.77704708295532 	(obj:0)
a0,7                                 1.77704708295532 	(obj:0)
z0,8                               -0.523075718694421 	(obj:0)
z0,9                               -0.244873442449728 	(obj:0)
z1,0                                   4.225663679762 	(obj:0)
a1,0                                   4.225663679762 	(obj:0)
z1,1                               -0.335803222745158 	(obj:0)
z1,2                                 4.08556873635853 	(obj:0)
a1,2                                 4.08556873635853 	(obj:0)
z1,3                                 1.66410836467175 	(obj:0)
a1,3                                 1.66410836467175 	(obj:0)
z1,4                                   1.548251339566 	(obj:0)
a1,4                                   1.548251339566 	(obj:0)
z1,5                               -0.142249629032256 	(obj:0)
z1,6                                 3.27451147048659 	(obj:0)
a1,6                                 3.27451147048659 	(obj:0)
z1,7                                 2.75360820601737 	(obj:0)
a1,7                                 2.75360820601737 	(obj:0)
z1,8                                 2.46313228538378 	(obj:0)
a1,8                                 2.46313228538378 	(obj:0)
z1,9                               -0.276810817942002 	(obj:0)
z2,0                                -5.10122200436555 	(obj:0)
z2,1                                 7.17196271254327 	(obj:0)
a2,1                                 7.17196271254327 	(obj:-1)
z2,2                                  2.3465304438445 	(obj:0)
a2,2                                  2.3465304438445 	(obj:1)
z2,3                                  1.2357875817888 	(obj:0)
a2,3                                  1.2357875817888 	(obj:0)
z2,4                                -2.10013769508155 	(obj:0)
z2,5                                -1.56328069815434 	(obj:0)
z2,6                               -0.163602949472127 	(obj:0)
z2,7                                  1.0126014354944 	(obj:0)
a2,7                                  1.0126014354944 	(obj:0)
z2,8                                 2.73751714955092 	(obj:0)
a2,8                                 2.73751714955092 	(obj:0)
z2,9                                -3.56659026421621 	(obj:0)
